(declare-const X String)
; is\s+lnzzlnbk\x2fpkrm\.fin\s+Host\x3A\x2Ftoolbar\x2Fsupremetb
(assert (str.in_re X (re.++ (str.to_re "is") (re.+ (re.union (str.to_re " ") (str.to_re "\u{9}") (str.to_re "\u{a}") (str.to_re "\u{c}") (str.to_re "\u{d}"))) (str.to_re "lnzzlnbk/pkrm.fin") (re.+ (re.union (str.to_re " ") (str.to_re "\u{9}") (str.to_re "\u{a}") (str.to_re "\u{c}") (str.to_re "\u{d}"))) (str.to_re "Host:/toolbar/supremetb\u{a}"))))
; /^\/b\/(letr|req|opt|eve)\/[0-9a-fA-F]{24}$/U
(assert (str.in_re X (re.++ (str.to_re "//b/") (re.union (str.to_re "letr") (str.to_re "req") (str.to_re "opt") (str.to_re "eve")) (str.to_re "/") ((_ re.loop 24 24) (re.union (re.range "0" "9") (re.range "a" "f") (re.range "A" "F"))) (str.to_re "/U\u{a}"))))
(check-sat)

(exit)
